code/coins.sol
# Objective value = 114.9
Pennies 0
Nickels 0
Dimes 4
Quarters 50
Halves 0
Dollars 102
Cu 999.3884
Ni 40.8946
Zn 4.9571999999999996e+01
Mn 2.8916999999999998e+01
